db/inputs/211773268011271473531453270432549332298.smt2
(set-logic QF_FP)
(declare-const x0 (_ FloatingPoint 11 53))
(declare-const x1 (_ FloatingPoint 11 53))
(declare-const x2 (_ FloatingPoint 11 53))
(declare-const x3 (_ FloatingPoint 11 53))
(declare-const x4 (_ FloatingPoint 11 53))
(declare-const x5 (_ FloatingPoint 11 53))
(declare-const x6 (_ FloatingPoint 11 53))
(assert (fp.leq (fp.div RNE (fp.neg (fp.add RNE x0 x2)) (fp.sub RNE (fp.neg x0) (fp.div RNE x0 x1))) (fp.mul RNE (fp.div RNE (fp.mul RNE x2 x2) (fp.mul RNE x0 x0)) (fp.sub RNE (fp.add RNE x3 x5) (fp.div RNE x6 x3)))))
(assert (fp.leq (fp.add RNE (fp.neg (fp.sub RNE x6 x4)) (fp.neg (fp.add RNE x0 x2))) (fp.neg (fp.sub RNE (fp.sub RNE x5 x5) (fp.add RNE x1 x2)))))
(check-sat)
