db/data/211773268011271473531453270432549332298.z3.out
sat
-------------------
398.959166064
